\ This file has been generated by DOcplex
\ ENCODING=ISO-8859-1
\Problem name: dectiger problem

Maximize
 obj: [ 2.972968750000 a0_u0*a1_u0_x0 - 103 a0_u0*a1_u1_x0 + 7 a0_u0*a1_u2_x0
      - 74.611406250000 a0_u0*a1_u0_x1 + 18 a0_u0*a1_u1_x1 - 92 a0_u0*a1_u2_x1
      - 103 a0_u1*a1_u0_x0 - 52 a0_u1*a1_u1_x0 - 102 a0_u1*a1_u2_x0
      + 18 a0_u1*a1_u0_x1 + 29 a0_u1*a1_u1_x1 - 91 a0_u1*a1_u2_x1
      + 7 a0_u2*a1_u0_x0 - 102 a0_u2*a1_u1_x0 + 18 a0_u2*a1_u2_x0
      - 92 a0_u2*a1_u0_x1 - 91 a0_u2*a1_u1_x1 - 41 a0_u2*a1_u2_x1 ]/2
Subject To
 c1: - 16.679218750000 aj_u0_x0 - 118 aj_u1_x0 - 86 aj_u2_x0 - 93 aj_u3_x0
     - 27 aj_u4_x0 - 35 aj_u5_x0 - 7 aj_u6_x0 - 110 aj_u7_x0 - 67 aj_u8_x0
     + 16.679218750000 a0_u0 + 93 a0_u1 + 7 a0_u2 >= 0
 c2: - 16.679218750000 aj_u0_x0 - 118 aj_u1_x0 - 86 aj_u2_x0 - 93 aj_u3_x0
     - 27 aj_u4_x0 - 35 aj_u5_x0 - 7 aj_u6_x0 - 110 aj_u7_x0 - 67 aj_u8_x0
     + 118 a0_u0 + 27 a0_u1 + 110 a0_u2 >= 0
 c3: - 16.679218750000 aj_u0_x0 - 118 aj_u1_x0 - 86 aj_u2_x0 - 93 aj_u3_x0
     - 27 aj_u4_x0 - 35 aj_u5_x0 - 7 aj_u6_x0 - 110 aj_u7_x0 - 67 aj_u8_x0
     + 86 a0_u0 + 35 a0_u1 + 67 a0_u2 >= 0
 c4: - 120.031093750000 aj_u0_x1 - 14 aj_u1_x1 - 77 aj_u2_x1 - 91 aj_u3_x1
     - 95 aj_u4_x1 - 14 aj_u5_x1 - 39 aj_u6_x1 - 33 aj_u7_x1 - 104 aj_u8_x1
     + 120.031093750000 a0_u0 + 91 a0_u1 + 39 a0_u2 >= 0
 c5: - 120.031093750000 aj_u0_x1 - 14 aj_u1_x1 - 77 aj_u2_x1 - 91 aj_u3_x1
     - 95 aj_u4_x1 - 14 aj_u5_x1 - 39 aj_u6_x1 - 33 aj_u7_x1 - 104 aj_u8_x1
     + 14 a0_u0 + 95 a0_u1 + 33 a0_u2 >= 0
 c6: - 120.031093750000 aj_u0_x1 - 14 aj_u1_x1 - 77 aj_u2_x1 - 91 aj_u3_x1
     - 95 aj_u4_x1 - 14 aj_u5_x1 - 39 aj_u6_x1 - 33 aj_u7_x1 - 104 aj_u8_x1
     + 77 a0_u0 + 14 a0_u1 + 104 a0_u2 >= 0
 c7: a0_u0 + a0_u1 + a0_u2 = 1
 c8: a1_u0_x0 + a1_u1_x0 + a1_u2_x0 = 1
 c9: aj_u0_x0 + aj_u1_x0 + aj_u2_x0 + aj_u3_x0 + aj_u4_x0 + aj_u5_x0 + aj_u6_x0
     + aj_u7_x0 + aj_u8_x0 = 1
 c10: a1_u0_x1 + a1_u1_x1 + a1_u2_x1 = 1
 c11: aj_u0_x1 + aj_u1_x1 + aj_u2_x1 + aj_u3_x1 + aj_u4_x1 + aj_u5_x1 + aj_u6_x1
      + aj_u7_x1 + aj_u8_x1 = 1
 c12: aj_u0_x0 + aj_u1_x0 + aj_u2_x0 - a0_u0 = 0
 c13: aj_u3_x0 + aj_u4_x0 + aj_u5_x0 - a0_u1 = 0
 c14: aj_u6_x0 + aj_u7_x0 + aj_u8_x0 - a0_u2 = 0
 c15: aj_u0_x1 + aj_u1_x1 + aj_u2_x1 - a0_u0 = 0
 c16: aj_u3_x1 + aj_u4_x1 + aj_u5_x1 - a0_u1 = 0
 c17: aj_u6_x1 + aj_u7_x1 + aj_u8_x1 - a0_u2 = 0
 c18: aj_u0_x0 + aj_u3_x0 + aj_u6_x0 - a1_u0_x0 = 0
 c19: aj_u1_x0 + aj_u4_x0 + aj_u7_x0 - a1_u1_x0 = 0
 c20: aj_u2_x0 + aj_u5_x0 + aj_u8_x0 - a1_u2_x0 = 0
 c21: aj_u0_x1 + aj_u3_x1 + aj_u6_x1 - a1_u0_x1 = 0
 c22: aj_u1_x1 + aj_u4_x1 + aj_u7_x1 - a1_u1_x1 = 0
 c23: aj_u2_x1 + aj_u5_x1 + aj_u8_x1 - a1_u2_x1 = 0

Bounds
       a0_u0 <= 1
       a0_u1 <= 1
       a0_u2 <= 1
 0 <= a1_u0_x0 <= 1
 0 <= a1_u1_x0 <= 1
 0 <= a1_u2_x0 <= 1
       aj_u0_x0 <= 1
       aj_u1_x0 <= 1
       aj_u2_x0 <= 1
       aj_u3_x0 <= 1
       aj_u4_x0 <= 1
       aj_u5_x0 <= 1
       aj_u6_x0 <= 1
       aj_u7_x0 <= 1
       aj_u8_x0 <= 1
 0 <= a1_u0_x1 <= 1
 0 <= a1_u1_x1 <= 1
 0 <= a1_u2_x1 <= 1
       aj_u0_x1 <= 1
       aj_u1_x1 <= 1
       aj_u2_x1 <= 1
       aj_u3_x1 <= 1
       aj_u4_x1 <= 1
       aj_u5_x1 <= 1
       aj_u6_x1 <= 1
       aj_u7_x1 <= 1
       aj_u8_x1 <= 1

Binaries
 a1_u0_x0 a1_u1_x0 a1_u2_x0 a1_u0_x1 a1_u1_x1 a1_u2_x1
End
